NAME: concorde91
TYPE: TSP
DIMENSION: 70 
EDGE_WEIGHT_TYPE: EUC_2D
NODE_COORD_SECTION
1 33 67
2 33 91
3 95 73
4 38 92
5 56 38
6 51 86
7 14 5
8 24 25
9 72 37
10 30 36
11 51 28
12 28 39
13 36 35
14 44 28
15 81 80
16 52 100
17 70 76
18 85 60
19 85 59
20 39 58
21 15 24
22 64 45
23 29 100
24 93 8
25 15 5
26 97 49
27 0 5
28 71 95
29 63 63
30 78 27
31 90 100
32 51 36
33 75 37
34 93 33
35 9 10
36 50 58
37 19 33
38 100 0
39 3 100
40 21 37
41 89 22
42 12 75
43 37 30
44 16 40
45 16 39
46 98 44
47 81 78
48 96 21
49 40 75
50 86 59
51 6 32
52 30 37
53 49 2
54 65 48
55 51 97
56 80 0
57 57 10
58 35 44
59 66 31
60 24 98
61 26 59
62 52 74
63 74 67
64 78 73
65 11 11
66 61 22
67 92 62
68 64 96
69 27 82
70 35 2
